data_XIX
 
 
#----------------------------------------------------------------------------#
#                   CHEMICAL INFORMATION                                     #
#----------------------------------------------------------------------------#
 
_chemical_name_systematic
;
 ?
;
_chemical_formula_sum                   'C12 H10 N2 O4'
_chemical_formula_moiety                'C8 H7 N2, C4 H3 O4'
_chemical_formula_weight                246.22
_chemical_absolute_configuration        unk
 
#----------------------------------------------------------------------------#
#                   UNIT CELL INFORMATION                                    #
#----------------------------------------------------------------------------#
 
loop_
    _symmetry_equiv_pos_as_xyz
'x, y, z'
'-x, -y, z+1/2'
'x+1/2, -y, z'
'-x+1/2, y, z+1/2'


_symmetry_cell_setting            orthorhombic
_symmetry_space_group_name_H-M        'P c a 21'
_symmetry_space_group_name_Hall       'P 2c -2ac'

 
_cell_length_a                          23.501(3)
_cell_length_b                          3.7141(5)
_cell_length_c                          12.6535(14)
_cell_angle_alpha                       90
_cell_angle_beta                        90
_cell_angle_gamma                       90
_cell_volume                            1104.5(2)
_cell_formula_units_Z                   4
_cell_measurement_temperature           200(2)
_cell_measurement_theta_min             1.00
_cell_measurement_theta_max             27.48
_cell_measurement_reflns_used           4759
 
#----------------------------------------------------------------------------#
#                   CRYSTAL INFORMATION                                      #
#----------------------------------------------------------------------------#
 
_exptl_crystal_description              prism
_exptl_crystal_colour                   colorless
_exptl_crystal_size_max                 0.21
_exptl_crystal_size_mid                 0.12
_exptl_crystal_size_min                 0.08
_exptl_crystal_density_diffrn           1.481
_exptl_crystal_density_method           'not measured'
_exptl_crystal_F_000                    512
_exptl_special_details
;
 ?
;
 
#----------------------------------------------------------------------------#
#                   ABSORPTION CORRECTION                                    #
#----------------------------------------------------------------------------#
 
_exptl_absorpt_coefficient_mu           0.114
_exptl_absorpt_correction_type          multi-scan
_exptl_absorpt_process_details 'HKL Scalepack (Otwinowski & Minor, 1997)'
_exptl_absorpt_correction_T_min         0.977
_exptl_absorpt_correction_T_max         0.991
 
#----------------------------------------------------------------------------#
#                   DATA COLLECTION                                          #
#----------------------------------------------------------------------------#
 
_diffrn_ambient_temperature             200(2)
_diffrn_radiation_wavelength            0.71073
_diffrn_radiation_type                  MoK\a
_diffrn_radiation_monochromator         graphite
_diffrn_reflns_av_R_equivalents         0.0341
_diffrn_reflns_av_unetI/netI            0.0368
_diffrn_reflns_number                   6640
_diffrn_reflns_limit_h_min              -27
_diffrn_reflns_limit_h_max              27
_diffrn_reflns_limit_k_min              -4
_diffrn_reflns_limit_k_max              4
_diffrn_reflns_limit_l_min              -15
_diffrn_reflns_limit_l_max              15
_diffrn_reflns_theta_min                1.73
_diffrn_reflns_theta_max                25
_diffrn_reflns_theta_full               25
_diffrn_measured_fraction_theta_full
                                        1
_diffrn_measured_fraction_theta_max
                                        1
_diffrn_measurement_device_type   KappaCCD
_diffrn_measurement_method        'CCD phi and omega scans'
_diffrn_detector_area_resol_mean  9
_reflns_number_total                    1959
_reflns_number_gt                       1818
_reflns_threshold_expression            >2\s(I)
 
#----------------------------------------------------------------------------#
#                   COMPUTER PROGRAMS USED                                   #
#----------------------------------------------------------------------------#
 
_computing_data_collection              'Collect (Nonius BV, 1997-2000)'
_computing_cell_refinement
                                   'HKL Scalepack (Otwinowski & Minor, 1997)'
_computing_data_reduction
                            'HKL Denzo, Scalepack (Otwinowski & Minor, 1997)'
_computing_structure_solution           'SHELXTL v6.1 (Sheldrick, 1997)'
_computing_structure_refinement         'SHELXTL v6.1 (Sheldrick, 1997)'
_computing_molecular_graphics           'SHELXTL v6.1 (Sheldrick, 1997)'
_computing_publication_material         'SHELXTL v6.1 (Sheldrick, 1997)'
 
#----------------------------------------------------------------------------#
#                   STRUCTURE SOLUTION
#----------------------------------------------------------------------------#
 
_atom_sites_solution_primary            direct
_atom_sites_solution_secondary          difmap
_atom_sites_solution_hydrogens          geom
 
#----------------------------------------------------------------------------#
#                   REFINEMENT INFORMATION                                   #
#----------------------------------------------------------------------------#
 
_refine_special_details
;
 Refinement of F^2^ against ALL reflections.  The weighted R-factor wR and
 goodness of fit S are based on F^2^, conventional R-factors R are based
 on F, with F set to zero for negative F^2^. The threshold expression of
 F^2^ > 2\s(F^2^) is used only for calculating R-factors(gt) etc. and is
 not relevant to the choice of reflections for refinement.  R-factors based
 on F^2^ are statistically about twice as large as those based on F, and R-
 factors based on ALL data will be even larger.
;
_refine_ls_structure_factor_coef        Fsqd
_refine_ls_matrix_type                  full
_refine_ls_weighting_scheme             calc
_refine_ls_weighting_details
         'calc w=1/[\s^2^(Fo^2^)+(0.0704P)^2^+0.0000P] where P=(Fo^2^+2Fc^2^)/3'
_refine_ls_hydrogen_treatment           mixed
_refine_ls_extinction_method            SHELXL
_refine_ls_extinction_expression
                                    Fc^*^=kFc[1+0.001xFc^2^\l^3^/sin(2\q)]^-1/4^
_refine_ls_extinction_coef              0.022(4)
_refine_ls_number_reflns                1959
_refine_ls_number_parameters            169
_refine_ls_number_restraints            1
_refine_ls_R_factor_all                 0.0403
_refine_ls_R_factor_gt                  0.0315
_refine_ls_wR_factor_ref                0.1116
_refine_ls_wR_factor_gt                 0.0806
_refine_ls_goodness_of_fit_ref          1.27
_refine_ls_restrained_S_all             1.27
_refine_ls_shift/su_max                 0
_refine_ls_shift/su_mean                0
_refine_ls_abs_structure_details
                                    'Flack H D (1983), Acta Cryst. A39, 876-881'
_refine_ls_abs_structure_Flack          1.0(12)
_refine_diff_density_max                0.256
_refine_diff_density_min                -0.21
_refine_diff_density_rms                0.077
 
#----------------------------------------------------------------------------#
#                   ATOMIC TYPES, COORDINATES AND THERMAL PARAMETERS         #
#----------------------------------------------------------------------------#
 
loop_
    _atom_type_symbol
    _atom_type_description
    _atom_type_scat_dispersion_real
    _atom_type_scat_dispersion_imag
    _atom_type_scat_source
C C 0.0033 0.0016 'International Tables Vol C Tables 4.2.6.8 and 6.1.1.4'
H H 0 0 'International Tables Vol C Tables 4.2.6.8 and 6.1.1.4'
N N 0.0061 0.0033 'International Tables Vol C Tables 4.2.6.8 and 6.1.1.4'
O O 0.0106 0.006 'International Tables Vol C Tables 4.2.6.8 and 6.1.1.4'
 
loop_
    _atom_site_label
    _atom_site_type_symbol
    _atom_site_fract_x
    _atom_site_fract_y
    _atom_site_fract_z
    _atom_site_U_iso_or_equiv
    _atom_site_adp_type
    _atom_site_occupancy
    _atom_site_symmetry_multiplicity
    _atom_site_calc_flag
    _atom_site_refinement_flags
    _atom_site_disorder_assembly
    _atom_site_disorder_group
H2N H 0.3210(15) 0.474(10) 0.706(3) 0.084(12) Uiso 1 1 d . . .
N2 N 0.29846(8) 0.3853(5) 0.77618(14) 0.0299(4) Uani 1 1 d . . .
C8 C 0.24021(9) 0.3935(5) 0.78010(17) 0.0264(5) Uani 1 1 d . . .
C4 C 0.21166(9) 0.2714(5) 0.87043(17) 0.0295(5) Uani 1 1 d . . .
N1 N 0.21382(8) 0.5273(5) 0.69295(14) 0.0332(5) Uani 1 1 d . . .
O2 O -0.14217(7) 1.4111(5) 0.61643(12) 0.0386(4) Uani 1 1 d . . .
O4 O 0.07504(7) 0.7492(5) 0.49452(15) 0.0458(5) Uani 1 1 d . . .
O1 O -0.07662(8) 1.2883(5) 0.73722(14) 0.0474(5) Uani 1 1 d . . .
O3 O 0.00748(7) 0.9493(5) 0.38519(13) 0.0433(5) Uani 1 1 d . . .
H3O H 0.0291 0.8709 0.3398 0.065 Uiso 1 1 calc R . .
C3 C 0.15169(10) 0.2917(6) 0.87021(19) 0.0365(5) Uani 1 1 d . . .
H3 H 0.1308 0.2171 0.9287 0.044 Uiso 1 1 calc R . .
C6 C 0.30159(12) 0.1317(6) 0.94898(17) 0.0382(6) Uani 1 1 d . . .
H6 H 0.3234 0.0434 1.0045 0.046 Uiso 1 1 calc R . .
C12 C 0.02968(9) 0.8921(6) 0.47993(19) 0.0330(5) Uani 1 1 d . . .
C5 C 0.24424(11) 0.1359(6) 0.95628(18) 0.0357(6) Uani 1 1 d . . .
H5 H 0.2263 0.051 1.0168 0.043 Uiso 1 1 calc R . .
C1 C 0.15768(11) 0.5359(6) 0.69674(19) 0.0382(5) Uani 1 1 d . . .
H1 H 0.1385 0.6239 0.6379 0.046 Uiso 1 1 calc R . .
C7 C 0.32783(10) 0.2609(6) 0.85749(18) 0.0346(5) Uani 1 1 d . . .
H7 H 0.3673 0.2593 0.8536 0.042 Uiso 1 1 calc R . .
C11 C -0.00701(10) 1.0169(6) 0.5678(2) 0.0337(5) Uani 1 1 d . . .
H11 H 0.0051 0.9717 0.6365 0.04 Uiso 1 1 calc R . .
C9 C -0.09303(9) 1.3005(5) 0.64468(18) 0.0309(5) Uani 1 1 d . . .
C10 C -0.05547(9) 1.1869(6) 0.55539(18) 0.0303(5) Uani 1 1 d . . .
H10 H -0.0672 1.24 0.4869 0.036 Uiso 1 1 calc R . .
C2 C 0.12492(11) 0.4223(6) 0.7828(2) 0.0415(6) Uani 1 1 d . . .
H2 H 0.0854 0.4357 0.7804 0.05 Uiso 1 1 calc R . .
 
loop_
    _atom_site_aniso_label
    _atom_site_aniso_U_11
    _atom_site_aniso_U_22
    _atom_site_aniso_U_33
    _atom_site_aniso_U_23
    _atom_site_aniso_U_13
    _atom_site_aniso_U_12
N2 0.0340(11) 0.0304(9) 0.0251(10) -0.0017(7) 0.0033(8) -0.0027(8)
C8 0.0322(13) 0.0227(10) 0.0242(11) -0.0032(8) 0.0001(9) -0.0010(9)
C4 0.0404(12) 0.0213(9) 0.0269(11) -0.0039(8) 0.0064(11) -0.0031(10)
N1 0.0381(11) 0.0348(9) 0.0268(10) 0.0027(8) -0.0001(8) -0.0011(8)
O2 0.0309(9) 0.0548(9) 0.0302(8) -0.0006(7) 0.0003(6) 0.0096(7)
O4 0.0311(9) 0.0632(11) 0.0431(10) 0.0015(8) 0.0008(8) 0.0134(8)
O1 0.0458(11) 0.0667(11) 0.0297(10) 0.0023(8) -0.0018(8) 0.0174(9)
O3 0.0351(9) 0.0617(11) 0.0330(9) -0.0040(8) -0.0010(7) 0.0138(8)
C3 0.0404(12) 0.0318(11) 0.0373(13) -0.0039(10) 0.0130(12) -0.0022(10)
C6 0.0539(17) 0.0331(12) 0.0277(13) 0.0016(9) -0.0037(11) 0.0055(11)
C12 0.0282(12) 0.0350(11) 0.0356(13) -0.0001(10) -0.0004(10) 0.0006(9)
C5 0.0557(16) 0.0266(10) 0.0248(12) 0.0003(9) 0.0059(11) 0.0021(10)
C1 0.0385(13) 0.0380(12) 0.0380(13) -0.0006(10) -0.0050(10) 0.0006(10)
C7 0.0352(12) 0.0336(12) 0.0350(13) -0.0046(9) -0.0024(11) 0.0038(10)
C11 0.0333(12) 0.0388(11) 0.0289(11) 0.0007(10) 0.0006(9) 0.0019(9)
C9 0.0319(12) 0.0316(10) 0.0292(12) 0.0023(9) -0.0002(9) 0.0005(9)
C10 0.0309(12) 0.0309(9) 0.0292(12) 0.0003(10) -0.0018(9) -0.0013(9)
C2 0.0321(13) 0.0429(13) 0.0495(15) -0.0051(11) 0.0033(11) -0.0011(11)
 
 
#----------------------------------------------------------------------------#
#                   MOLECULAR GEOMETRY                                       #
#----------------------------------------------------------------------------#
 
_geom_special_details
;
 All s.u.'s (except the s.u. in the dihedral angle between two l.s. planes)
 are estimated using the full covariance matrix.  The cell s.u.'s are taken
 into account individually in the estimation of s.u.'s in distances, angles
 and torsion angles; correlations between s.u.'s in cell parameters are only
 used when they are defined by crystal symmetry.  An approximate (isotropic)
 treatment of cell s.u.'s is used for estimating s.u.'s involving l.s. planes.
;
loop_
    _geom_bond_atom_site_label_1
    _geom_bond_atom_site_label_2
    _geom_bond_distance
    _geom_bond_site_symmetry_2
    _geom_bond_publ_flag
N2 C7 1.322(3) . ?
N2 C8 1.370(3) . ?
N2 H2N 1.09(4) . ?
C8 N1 1.359(3) . ?
C8 C4 1.401(3) . ?
C4 C3 1.411(3) . ?
C4 C5 1.421(3) . ?
N1 C1 1.321(3) . ?
O2 C9 1.277(3) . ?
O4 C12 1.205(3) . ?
O1 C9 1.234(3) . ?
O3 C12 1.325(3) . ?
O3 H3O 0.82 . ?
C3 C2 1.362(4) . ?
C3 H3 0.93 . ?
C6 C5 1.351(4) . ?
C6 C7 1.397(3) . ?
C6 H6 0.93 . ?
C12 C11 1.482(3) . ?
C5 H5 0.93 . ?
C1 C2 1.399(4) . ?
C1 H1 0.93 . ?
C7 H7 0.93 . ?
C11 C10 1.312(3) . ?
C11 H11 0.93 . ?
C9 C10 1.495(3) . ?
C10 H10 0.93 . ?
C2 H2 0.93 . ?
 
loop_
    _geom_angle_atom_site_label_1
    _geom_angle_atom_site_label_2
    _geom_angle_atom_site_label_3
    _geom_angle
    _geom_angle_site_symmetry_1
    _geom_angle_site_symmetry_3
    _geom_angle_publ_flag
C7 N2 C8 120.1(2) . . ?
C7 N2 H2N 119.2(19) . . ?
C8 N2 H2N 120.7(19) . . ?
N1 C8 N2 115.76(19) . . ?
N1 C8 C4 124.2(2) . . ?
N2 C8 C4 120.07(19) . . ?
C8 C4 C3 117.4(2) . . ?
C8 C4 C5 118.70(19) . . ?
C3 C4 C5 123.9(2) . . ?
C1 N1 C8 115.80(19) . . ?
C12 O3 H3O 109.5 . . ?
C2 C3 C4 118.8(2) . . ?
C2 C3 H3 120.6 . . ?
C4 C3 H3 120.6 . . ?
C5 C6 C7 119.6(2) . . ?
C5 C6 H6 120.2 . . ?
C7 C6 H6 120.2 . . ?
O4 C12 O3 123.9(2) . . ?
O4 C12 C11 122.5(2) . . ?
O3 C12 C11 113.56(19) . . ?
C6 C5 C4 119.3(2) . . ?
C6 C5 H5 120.4 . . ?
C4 C5 H5 120.4 . . ?
N1 C1 C2 124.8(2) . . ?
N1 C1 H1 117.6 . . ?
C2 C1 H1 117.6 . . ?
N2 C7 C6 122.3(2) . . ?
N2 C7 H7 118.8 . . ?
C6 C7 H7 118.8 . . ?
C10 C11 C12 124.5(2) . . ?
C10 C11 H11 117.8 . . ?
C12 C11 H11 117.8 . . ?
O1 C9 O2 124.1(2) . . ?
O1 C9 C10 121.5(2) . . ?
O2 C9 C10 114.42(19) . . ?
C11 C10 C9 123.9(2) . . ?
C11 C10 H10 118 . . ?
C9 C10 H10 118 . . ?
C3 C2 C1 119.1(2) . . ?
C3 C2 H2 120.5 . . ?
C1 C2 H2 120.5 . . ?
 
# The following lines are used to test the character set of files sent by
# network email or other means. They are not part of the CIF data set
# abcdefghijklmnopqrstuvwxyzABCDEFGHIJKLMNOPQRSTUVWXYZ0123456789
# !@#$%^&*()_+{}:"~<>?|\-=[];'`,./
 
# END of CIF

 
