data_XXI_form_4

_journal_name_full                 ?
_publ_contact_author_name         'Dr. Michael J. Zaworotko'
_publ_contact_author_address            'Dept. of Chem., USF, Tampa'
_publ_contact_author_email         'xtal@usf.edu'
_publ_contact_author_phone         +1(813)9744129
_publ_contact_author_fax           +1(813)9743203
 
loop_
 _pub_author_name                 'K.K.Arora, H.D.Clarke and M.J.Zaworotko' 
 
_audit_creation_method            SHELXL-97 
_chemical_name_systematic 
; 
 'Gallic acid monohydrate' 
; 
_chemical_name_common             'Gallic acid monohydrate'
_exptl_crystal_preparation        'water' 
_chemical_melting_point           '266-268 C' 
_chemical_formula_moiety          '(C7 H6 O5), (H2 O)' 
_chemical_formula_sum 
 'C7 H8 O6' 
_chemical_formula_weight          188.13 
 
loop_ 
 _atom_type_symbol 
 _atom_type_description 
 _atom_type_scat_dispersion_real 
 _atom_type_scat_dispersion_imag 
 _atom_type_scat_source 
 'C'  'C'   0.0033   0.0016 
 'International Tables Vol C Tables 4.2.6.8 and 6.1.1.4' 
 'H'  'H'   0.0000   0.0000 
 'International Tables Vol C Tables 4.2.6.8 and 6.1.1.4' 
 'O'  'O'   0.0106   0.0060 
 'International Tables Vol C Tables 4.2.6.8 and 6.1.1.4' 
 
_symmetry_cell_setting            'Monoclinic' 
_symmetry_space_group_name_H-M    'P2(1)/c' 
_symmetry_space_group_name_Hall   '-P 2ybc' 
 
loop_ 
 _symmetry_equiv_pos_as_xyz 
 'x, y, z' 
 '-x, y+1/2, -z+1/2' 
 '-x, -y, -z' 
 'x, -y-1/2, z-1/2' 
 
_cell_length_a                    9.790(7) 
_cell_length_b                    3.609(3) 
_cell_length_c                    21.583(16) 
_cell_angle_alpha                 90.00 
_cell_angle_beta                  91.462(14) 
_cell_angle_gamma                 90.00 
_cell_volume                      762.4(10) 
_cell_formula_units_Z             4 
_cell_measurement_temperature     298(2) 
_cell_measurement_reflns_used     ? 
_cell_measurement_theta_min       ? 
_cell_measurement_theta_max       ? 
 
_exptl_crystal_description        'plates'
_exptl_crystal_colour             'colorless' 
_exptl_crystal_size_max           0.25 
_exptl_crystal_size_mid           0.20 
_exptl_crystal_size_min           0.10 
_exptl_crystal_density_meas       ? 
_exptl_crystal_density_diffrn     1.639 
_exptl_crystal_density_method     'not measured' 
_exptl_crystal_F_000              392 
_exptl_absorpt_coefficient_mu     0.147 
_exptl_absorpt_correction_type    'multi-scan' 
_exptl_absorpt_correction_T_min   0.9641 
_exptl_absorpt_correction_T_max   0.9854 
_exptl_absorpt_process_details    'SADABS; Sheldrick, 1996' 
 
_exptl_special_details 
; 
 ? 
; 
 
_diffrn_ambient_temperature       298(2) 
_diffrn_radiation_wavelength      0.71073 
_diffrn_radiation_type            MoK\a 
_diffrn_radiation_source          'fine-focus sealed tube' 
_diffrn_radiation_monochromator   graphite 
_diffrn_measurement_device_type   'Bruker APEX CCD area detector' 
_diffrn_measurement_method        'phi and omega scans' 
_diffrn_detector_area_resol_mean  ? 
_diffrn_standards_number          ? 
_diffrn_standards_interval_count  ? 
_diffrn_standards_interval_time   ? 
_diffrn_standards_decay_%         ? 
_diffrn_reflns_number             3482 
_diffrn_reflns_av_R_equivalents   0.0555 
_diffrn_reflns_av_sigmaI/netI     0.0769 
_diffrn_reflns_limit_h_min        -11 
_diffrn_reflns_limit_h_max        8 
_diffrn_reflns_limit_k_min        -4 
_diffrn_reflns_limit_k_max        4 
_diffrn_reflns_limit_l_min        -25 
_diffrn_reflns_limit_l_max        24 
_diffrn_reflns_theta_min          1.89 
_diffrn_reflns_theta_max          25.03 
_reflns_number_total              1352 
_reflns_number_gt                 852 
_reflns_threshold_expression      >2sigma(I) 
 
_computing_data_collection        'Bruker SMART' 
_computing_cell_refinement        'Bruker SMART' 
_computing_data_reduction         'Bruker SAINT' 
_computing_structure_solution     'SHELXS-97 (Sheldrick, 1990)' 
_computing_structure_refinement   'SHELXL-97 (Sheldrick, 1997)' 
_computing_molecular_graphics     'Bruker SHELXTL' 
_computing_publication_material   'Bruker SHELXTL' 
 
_refine_special_details 
; 
 Refinement of F^2^ against ALL reflections.  The weighted R-factor wR and 
 goodness of fit S are based on F^2^, conventional R-factors R are based 
 on F, with F set to zero for negative F^2^. The threshold expression of 
 F^2^ > 2sigma(F^2^) is used only for calculating R-factors(gt) etc. and is 
 not relevant to the choice of reflections for refinement.  R-factors based 
 on F^2^ are statistically about twice as large as those based on F, and R- 
 factors based on ALL data will be even larger. 
; 
 
_refine_ls_structure_factor_coef  Fsqd  
_refine_ls_matrix_type            full 
_refine_ls_weighting_scheme       calc  
_refine_ls_weighting_details 
 'calc w=1/[\s^2^(Fo^2^)+(0.0503P)^2^+0.7079P] where P=(Fo^2^+2Fc^2^)/3' 
_atom_sites_solution_primary      direct 
_atom_sites_solution_secondary    difmap 
_atom_sites_solution_hydrogens    geom 
_refine_ls_hydrogen_treatment     mixed 
_refine_ls_extinction_method      none 
_refine_ls_extinction_coef        ? 
_refine_ls_number_reflns          1352 
_refine_ls_number_parameters      147 
_refine_ls_number_restraints      0 
_refine_ls_R_factor_all           0.1040 
_refine_ls_R_factor_gt            0.0595 
_refine_ls_wR_factor_ref          0.1555 
_refine_ls_wR_factor_gt           0.1360 
_refine_ls_goodness_of_fit_ref    1.049 
_refine_ls_restrained_S_all       1.049 
_refine_ls_shift/su_max           0.014 
_refine_ls_shift/su_mean          0.002 
 
loop_ 
 _atom_site_label 
 _atom_site_type_symbol 
 _atom_site_fract_x 
 _atom_site_fract_y 
 _atom_site_fract_z 
 _atom_site_U_iso_or_equiv 
 _atom_site_adp_type 
 _atom_site_occupancy 
 _atom_site_symmetry_multiplicity 
 _atom_site_calc_flag 
 _atom_site_refinement_flags 
 _atom_site_disorder_assembly 
 _atom_site_disorder_group 
C1 C 0.5621(4) 0.3395(12) 0.37310(19) 0.0353(11) Uani 1 1 d . . . 
C2 C 0.4120(4) 0.4090(11) 0.36595(18) 0.0288(10) Uani 1 1 d . . . 
C3 C 0.3263(4) 0.3653(11) 0.41602(19) 0.0281(10) Uani 1 1 d . . . 
C4 C 0.1367(4) 0.5408(11) 0.35007(18) 0.0266(10) Uani 1 1 d . . . 
C5 C 0.1884(4) 0.4326(11) 0.40743(17) 0.0265(10) Uani 1 1 d . . . 
C6 C 0.2223(4) 0.5782(12) 0.30011(17) 0.0304(10) Uani 1 1 d . . . 
C7 C 0.3602(4) 0.5131(13) 0.30816(19) 0.0330(11) Uani 1 1 d . . . 
O1 O 0.0979(3) 0.4007(9) 0.45470(13) 0.0402(9) Uani 1 1 d . . . 
O2 O -0.0007(3) 0.6113(11) 0.34440(12) 0.0404(9) Uani 1 1 d . . . 
O3 O 0.1595(3) 0.6707(10) 0.24489(13) 0.0459(10) Uani 1 1 d . . . 
O4 O 0.5979(3) 0.2047(10) 0.42725(14) 0.0465(10) Uani 1 1 d . . . 
O5 O 0.6421(3) 0.4010(10) 0.33216(14) 0.0507(10) Uani 1 1 d . . . 
O6 O 0.8557(4) 0.9883(11) 0.43776(15) 0.0412(9) Uani 1 1 d . . . 
H1W H 0.870(6) 0.872(17) 0.417(3) 0.062 Uiso 1 1 d . . . 
H2W H 0.915(5) 1.142(15) 0.449(2) 0.062 Uiso 1 1 d . . . 
H1 H 0.362(4) 0.298(11) 0.4563(18) 0.038(12) Uiso 1 1 d . . . 
H2 H -0.027(6) 0.649(17) 0.320(2) 0.057 Uiso 1 1 d . . . 
H3 H 0.128(7) 0.26(2) 0.493(3) 0.14(3) Uiso 1 1 d . . . 
H4 H 0.219(5) 0.728(14) 0.216(2) 0.062(16) Uiso 1 1 d . . . 
H5 H 0.419(4) 0.548(12) 0.277(2) 0.051(14) Uiso 1 1 d . . . 
H6 H 0.690(5) 0.180(14) 0.431(2) 0.063(16) Uiso 1 1 d . . . 
 
loop_ 
 _atom_site_aniso_label 
 _atom_site_aniso_U_11 
 _atom_site_aniso_U_22 
 _atom_site_aniso_U_33 
 _atom_site_aniso_U_23 
 _atom_site_aniso_U_13 
 _atom_site_aniso_U_12 
C1 0.034(3) 0.039(3) 0.032(2) -0.005(2) -0.002(2) 0.001(2) 
C2 0.023(2) 0.032(3) 0.031(2) -0.0015(18) 0.0002(18) 0.0064(18) 
C3 0.030(2) 0.028(2) 0.027(2) 0.0030(18) 0.0026(18) 0.0025(19) 
C4 0.017(2) 0.031(2) 0.032(2) 0.0013(18) 0.0004(17) 0.0026(18) 
C5 0.026(2) 0.032(3) 0.021(2) -0.0008(17) 0.0013(17) -0.0007(19) 
C6 0.028(2) 0.038(3) 0.026(2) 0.0022(19) -0.0006(18) 0.002(2) 
C7 0.026(2) 0.044(3) 0.028(2) 0.001(2) 0.0026(19) 0.000(2) 
O1 0.0321(17) 0.065(2) 0.0234(16) 0.0088(15) 0.0068(13) 0.0074(16) 
O2 0.0247(18) 0.069(2) 0.0272(18) 0.0034(17) -0.0023(13) 0.0061(16) 
O3 0.0281(17) 0.086(3) 0.0239(16) 0.0141(16) 0.0013(14) 0.0078(17) 
O4 0.0255(19) 0.074(3) 0.0395(18) 0.0153(17) -0.0026(14) 0.0114(17) 
O5 0.0283(18) 0.086(3) 0.0380(18) 0.0069(17) 0.0094(15) 0.0079(17) 
O6 0.0303(18) 0.055(3) 0.038(2) -0.0010(16) -0.0012(15) 0.0107(16) 
 
_geom_special_details 
; 
 All esds (except the esd in the dihedral angle between two l.s. planes) 
 are estimated using the full covariance matrix.  The cell esds are taken 
 into account individually in the estimation of esds in distances, angles 
 and torsion angles; correlations between esds in cell parameters are only 
 used when they are defined by crystal symmetry.  An approximate (isotropic) 
 treatment of cell esds is used for estimating esds involving l.s. planes. 
; 
 
loop_ 
 _geom_bond_atom_site_label_1 
 _geom_bond_atom_site_label_2 
 _geom_bond_distance 
 _geom_bond_site_symmetry_2 
 _geom_bond_publ_flag 
C1 O5 1.216(5) . ? 
C1 O4 1.305(5) . ? 
C1 C2 1.495(6) . ? 
C2 C7 1.386(6) . ? 
C2 C3 1.394(5) . ? 
C3 C5 1.380(5) . ? 
C3 H1 0.96(4) . ? 
C4 O2 1.371(5) . ? 
C4 C5 1.382(5) . ? 
C4 C6 1.389(5) . ? 
C5 O1 1.373(4) . ? 
C6 O3 1.368(4) . ? 
C6 C7 1.377(6) . ? 
C7 H5 0.90(4) . ? 
O1 H3 1.00(8) . ? 
O2 H2 0.60(5) . ? 
O3 H4 0.89(5) . ? 
O4 H6 0.91(5) . ? 
O6 H1W 0.64(5) . ? 
O6 H2W 0.84(5) . ? 
 
loop_ 
 _geom_angle_atom_site_label_1 
 _geom_angle_atom_site_label_2 
 _geom_angle_atom_site_label_3 
 _geom_angle 
 _geom_angle_site_symmetry_1 
 _geom_angle_site_symmetry_3 
 _geom_angle_publ_flag 
O5 C1 O4 123.8(4) . . ? 
O5 C1 C2 122.9(4) . . ? 
O4 C1 C2 113.3(4) . . ? 
C7 C2 C3 121.0(4) . . ? 
C7 C2 C1 118.3(4) . . ? 
C3 C2 C1 120.7(4) . . ? 
C5 C3 C2 118.8(4) . . ? 
C5 C3 H1 120(2) . . ? 
C2 C3 H1 121(2) . . ? 
O2 C4 C5 118.0(3) . . ? 
O2 C4 C6 121.5(4) . . ? 
C5 C4 C6 120.5(3) . . ? 
O1 C5 C3 122.2(4) . . ? 
O1 C5 C4 117.4(3) . . ? 
C3 C5 C4 120.4(3) . . ? 
O3 C6 C7 124.6(4) . . ? 
O3 C6 C4 115.7(3) . . ? 
C7 C6 C4 119.6(4) . . ? 
C6 C7 C2 119.7(4) . . ? 
C6 C7 H5 122(3) . . ? 
C2 C7 H5 119(3) . . ? 
C5 O1 H3 118(4) . . ? 
C4 O2 H2 121(5) . . ? 
C6 O3 H4 112(3) . . ? 
C1 O4 H6 111(3) . . ? 
H1W O6 H2W 119(6) . . ? 
 
_diffrn_measured_fraction_theta_max    0.996 
_diffrn_reflns_theta_full              25.03 
_diffrn_measured_fraction_theta_full   0.996 
_refine_diff_density_max    0.207 
_refine_diff_density_min   -0.198 
_refine_diff_density_rms    0.061 


